; Options: -in -smt2
(set-option :produce-unsat-assumptions true)

(declare-fun start!66624 () Bool)

(assert start!66624)

(declare-fun from!377 () (_ BitVec 64))

(declare-fun nBits!491 () (_ BitVec 64))

(assert (=> start!66624 (and (bvsge from!377 #b0000000000000000000000000000000000000000000000000000000000000000) (bvsge nBits!491 #b0000000000000000000000000000000000000000000000000000000000000000) (not (= #b0000000000000000000000000000000000000000000000000000000000000000 (bvand nBits!491 #b1000000000000000000000000000000000000000000000000000000000000000))) (not (= #b0000000000000000000000000000000000000000000000000000000000000000 (bvand (bvsub #b0111111111111111111111111111111111111111111111111111111111111111 nBits!491) #b1000000000000000000000000000000000000000000000000000000000000000))))))

(assert (=> start!66624 true))

(check-sat)
